data/lp_files/pEFS/58_7.lp
\ Model foo
\ LP format - for model browsing. Use MPS format to capture full model detail.
Minimize
  z
Subject To
 allocateEach[1]: x[1,1] + x[2,1] + x[3,1] = 1
 allocateEach[2]: x[1,2] + x[2,2] + x[3,2] = 1
 allocateEach[3]: x[1,3] + x[2,3] + x[3,3] = 1
 allocateEach[4]: x[1,4] + x[2,4] + x[3,4] = 1
 allocateEach[5]: x[1,5] + x[2,5] + x[3,5] = 1
 allocateEach[6]: x[1,6] + x[2,6] + x[3,6] = 1
 allocateEach[7]: x[1,7] + x[2,7] + x[3,7] = 1
 allocateEach[8]: x[1,8] + x[2,8] + x[3,8] = 1
 allocateEach[9]: x[1,9] + x[2,9] + x[3,9] = 1
 allocateEach[10]: x[1,10] + x[2,10] + x[3,10] = 1
 allocateEach[11]: x[1,11] + x[2,11] + x[3,11] = 1
 allocateEach[12]: x[1,12] + x[2,12] + x[3,12] = 1
 allocateEach[13]: x[1,13] + x[2,13] + x[3,13] = 1
 allocateEach[14]: x[1,14] + x[2,14] + x[3,14] = 1
 allocateEach[15]: x[1,15] + x[2,15] + x[3,15] = 1
 allocateEach[16]: x[1,16] + x[2,16] + x[3,16] = 1
 allocateEach[17]: x[1,17] + x[2,17] + x[3,17] = 1
 allocateEach[18]: x[1,18] + x[2,18] + x[3,18] = 1
 allocateAllCash: cashProportion[1] + cashProportion[2] + cashProportion[3]
   = 1
 findWorstP[1,2]: z + 0.0630768907297996 cashProportion[1]
   - 0.0630768907297996 cashProportion[2] + 0.0853745716027838 x[1,1]
   + 0.0591030466138222 x[1,2] + 0.0714556043817413 x[1,3]
   + 0.0545194592207901 x[1,4] + 0.0260507558714072 x[1,5]
   + 0.1047076386114674 x[1,6] + 0.0291310107020458 x[1,7]
   + 0.0997981539496646 x[1,8] + 0.0482538214082967 x[1,9]
   + 0.0351969050272282 x[1,10] + 0.0483694623746347 x[1,11]
   + 0.011437942852337 x[1,12] + 0.0135930699522718 x[1,13]
   + 0.0540463825403166 x[1,14] + 0.0574104833792393 x[1,15]
   + 0.00791614978658985 x[1,16] + 0.0674291961901558 x[1,17]
   + 0.0631294548054078 x[1,18] - 0.0853745716027838 x[2,1]
   - 0.0591030466138222 x[2,2] - 0.0714556043817413 x[2,3]
   - 0.0545194592207901 x[2,4] - 0.0260507558714072 x[2,5]
   - 0.1047076386114674 x[2,6] - 0.0291310107020458 x[2,7]
   - 0.0997981539496646 x[2,8] - 0.0482538214082967 x[2,9]
   - 0.0351969050272282 x[2,10] - 0.0483694623746347 x[2,11]
   - 0.011437942852337 x[2,12] - 0.0135930699522718 x[2,13]
   - 0.0540463825403166 x[2,14] - 0.0574104833792393 x[2,15]
   - 0.00791614978658985 x[2,16] - 0.0674291961901558 x[2,17]
   - 0.0631294548054078 x[2,18] >= 0
 findWorstP[1,3]: z + 0.0630768907297996 cashProportion[1]
   - 0.0630768907297996 cashProportion[3] + 0.0853745716027838 x[1,1]
   + 0.0591030466138222 x[1,2] + 0.0714556043817413 x[1,3]
   + 0.0545194592207901 x[1,4] + 0.0260507558714072 x[1,5]
   + 0.1047076386114674 x[1,6] + 0.0291310107020458 x[1,7]
   + 0.0997981539496646 x[1,8] + 0.0482538214082967 x[1,9]
   + 0.0351969050272282 x[1,10] + 0.0483694623746347 x[1,11]
   + 0.011437942852337 x[1,12] + 0.0135930699522718 x[1,13]
   + 0.0540463825403166 x[1,14] + 0.0574104833792393 x[1,15]
   + 0.00791614978658985 x[1,16] + 0.0674291961901558 x[1,17]
   + 0.0631294548054078 x[1,18] - 0.0853745716027838 x[3,1]
   - 0.0591030466138222 x[3,2] - 0.0714556043817413 x[3,3]
   - 0.0545194592207901 x[3,4] - 0.0260507558714072 x[3,5]
   - 0.1047076386114674 x[3,6] - 0.0291310107020458 x[3,7]
   - 0.0997981539496646 x[3,8] - 0.0482538214082967 x[3,9]
   - 0.0351969050272282 x[3,10] - 0.0483694623746347 x[3,11]
   - 0.011437942852337 x[3,12] - 0.0135930699522718 x[3,13]
   - 0.0540463825403166 x[3,14] - 0.0574104833792393 x[3,15]
   - 0.00791614978658985 x[3,16] - 0.0674291961901558 x[3,17]
   - 0.0631294548054078 x[3,18] >= 0
 findWorstP[2,1]: z - 0.067296260571121 cashProportion[1]
   + 0.067296260571121 cashProportion[2] - 0.0324255815518518 x[1,1]
   - 0.1081675228246484 x[1,2] - 0.0893245698647345 x[1,3]
   - 0.00555194149711748 x[1,4] - 0.0435182485026582 x[1,5]
   - 0.0088494582651024 x[1,6] - 0.0402880279952444 x[1,7]
   - 0.0246865115861729 x[1,8] - 0.0844343749298997 x[1,9]
   - 0.0368222705758317 x[1,10] - 0.00905134704681577 x[1,11]
   - 0.0728145539379529 x[1,12] - 0.0669709953116938 x[1,13]
   - 0.00484533076112071 x[1,14] - 0.0665111375311245 x[1,15]
   - 0.037865362614684 x[1,16] - 0.105699993270374 x[1,17]
   - 0.094876511361852 x[1,18] + 0.0324255815518518 x[2,1]
   + 0.1081675228246484 x[2,2] + 0.0893245698647345 x[2,3]
   + 0.00555194149711748 x[2,4] + 0.0435182485026582 x[2,5]
   + 0.0088494582651024 x[2,6] + 0.0402880279952444 x[2,7]
   + 0.0246865115861729 x[2,8] + 0.0844343749298997 x[2,9]
   + 0.0368222705758317 x[2,10] + 0.00905134704681577 x[2,11]
   + 0.0728145539379529 x[2,12] + 0.0669709953116938 x[2,13]
   + 0.00484533076112071 x[2,14] + 0.0665111375311245 x[2,15]
   + 0.037865362614684 x[2,16] + 0.105699993270374 x[2,17]
   + 0.094876511361852 x[2,18] >= 0
 findWorstP[2,3]: z + 0.067296260571121 cashProportion[2]
   - 0.067296260571121 cashProportion[3] + 0.0324255815518518 x[2,1]
   + 0.1081675228246484 x[2,2] + 0.0893245698647345 x[2,3]
   + 0.00555194149711748 x[2,4] + 0.0435182485026582 x[2,5]
   + 0.0088494582651024 x[2,6] + 0.0402880279952444 x[2,7]
   + 0.0246865115861729 x[2,8] + 0.0844343749298997 x[2,9]
   + 0.0368222705758317 x[2,10] + 0.00905134704681577 x[2,11]
   + 0.0728145539379529 x[2,12] + 0.0669709953116938 x[2,13]
   + 0.00484533076112071 x[2,14] + 0.0665111375311245 x[2,15]
   + 0.037865362614684 x[2,16] + 0.105699993270374 x[2,17]
   + 0.094876511361852 x[2,18] - 0.0324255815518518 x[3,1]
   - 0.1081675228246484 x[3,2] - 0.0893245698647345 x[3,3]
   - 0.00555194149711748 x[3,4] - 0.0435182485026582 x[3,5]
   - 0.0088494582651024 x[3,6] - 0.0402880279952444 x[3,7]
   - 0.0246865115861729 x[3,8] - 0.0844343749298997 x[3,9]
   - 0.0368222705758317 x[3,10] - 0.00905134704681577 x[3,11]
   - 0.0728145539379529 x[3,12] - 0.0669709953116938 x[3,13]
   - 0.00484533076112071 x[3,14] - 0.0665111375311245 x[3,15]
   - 0.037865362614684 x[3,16] - 0.105699993270374 x[3,17]
   - 0.094876511361852 x[3,18] >= 0
 findWorstP[3,1]: z - 0.0657620728205353 cashProportion[1]
   + 0.0657620728205353 cashProportion[3] - 0.0393476402376203 x[1,1]
   - 0.0351498279225761 x[1,2] - 0.0796488305311383 x[1,3]
   - 0.070266774808742 x[1,4] - 0.1088910322453364 x[1,5]
   - 0.0790898529121638 x[1,6] - 0.0719437076656656 x[1,7]
   - 0.0169446940967579 x[1,8] - 0.0100067954141915 x[1,9]
   - 0.0700366075538701 x[1,10] - 0.1020956180538811 x[1,11]
   - 0.0157171354041079 x[1,12] - 0.0855345360485762 x[1,13]
   - 0.0127907231635941 x[1,14] - 0.0580131085731822 x[1,15]
   - 0.0220412547403494 x[1,16] - 0.00872443499419102 x[1,17]
   - 0.0479953528135207 x[1,18] + 0.0393476402376203 x[3,1]
   + 0.0351498279225761 x[3,2] + 0.0796488305311383 x[3,3]
   + 0.070266774808742 x[3,4] + 0.1088910322453364 x[3,5]
   + 0.0790898529121638 x[3,6] + 0.0719437076656656 x[3,7]
   + 0.0169446940967579 x[3,8] + 0.0100067954141915 x[3,9]
   + 0.0700366075538701 x[3,10] + 0.1020956180538811 x[3,11]
   + 0.0157171354041079 x[3,12] + 0.0855345360485762 x[3,13]
   + 0.0127907231635941 x[3,14] + 0.0580131085731822 x[3,15]
   + 0.0220412547403494 x[3,16] + 0.00872443499419102 x[3,17]
   + 0.0479953528135207 x[3,18] >= 0
 findWorstP[3,2]: z - 0.0657620728205353 cashProportion[2]
   + 0.0657620728205353 cashProportion[3] - 0.0393476402376203 x[2,1]
   - 0.0351498279225761 x[2,2] - 0.0796488305311383 x[2,3]
   - 0.070266774808742 x[2,4] - 0.1088910322453364 x[2,5]
   - 0.0790898529121638 x[2,6] - 0.0719437076656656 x[2,7]
   - 0.0169446940967579 x[2,8] - 0.0100067954141915 x[2,9]
   - 0.0700366075538701 x[2,10] - 0.1020956180538811 x[2,11]
   - 0.0157171354041079 x[2,12] - 0.0855345360485762 x[2,13]
   - 0.0127907231635941 x[2,14] - 0.0580131085731822 x[2,15]
   - 0.0220412547403494 x[2,16] - 0.00872443499419102 x[2,17]
   - 0.0479953528135207 x[2,18] + 0.0393476402376203 x[3,1]
   + 0.0351498279225761 x[3,2] + 0.0796488305311383 x[3,3]
   + 0.070266774808742 x[3,4] + 0.1088910322453364 x[3,5]
   + 0.0790898529121638 x[3,6] + 0.0719437076656656 x[3,7]
   + 0.0169446940967579 x[3,8] + 0.0100067954141915 x[3,9]
   + 0.0700366075538701 x[3,10] + 0.1020956180538811 x[3,11]
   + 0.0157171354041079 x[3,12] + 0.0855345360485762 x[3,13]
   + 0.0127907231635941 x[3,14] + 0.0580131085731822 x[3,15]
   + 0.0220412547403494 x[3,16] + 0.00872443499419102 x[3,17]
   + 0.0479953528135207 x[3,18] >= 0
Bounds
 z <= 1
 -infinity <= cashProportion[1] <= 1
 -infinity <= cashProportion[2] <= 1
 -infinity <= cashProportion[3] <= 1
Binaries
 x[1,1] x[1,2] x[1,3] x[1,4] x[1,5] x[1,6] x[1,7] x[1,8] x[1,9] x[1,10]
 x[1,11] x[1,12] x[1,13] x[1,14] x[1,15] x[1,16] x[1,17] x[1,18] x[2,1]
 x[2,2] x[2,3] x[2,4] x[2,5] x[2,6] x[2,7] x[2,8] x[2,9] x[2,10] x[2,11]
 x[2,12] x[2,13] x[2,14] x[2,15] x[2,16] x[2,17] x[2,18] x[3,1] x[3,2]
 x[3,3] x[3,4] x[3,5] x[3,6] x[3,7] x[3,8] x[3,9] x[3,10] x[3,11] x[3,12]
 x[3,13] x[3,14] x[3,15] x[3,16] x[3,17] x[3,18]
End
