data/mps_files/pEFS/58_7.mps
NAME foo
ROWS
 N  OBJ
 E  allocateEach[1]
 E  allocateEach[2]
 E  allocateEach[3]
 E  allocateEach[4]
 E  allocateEach[5]
 E  allocateEach[6]
 E  allocateEach[7]
 E  allocateEach[8]
 E  allocateEach[9]
 E  allocateEach[10]
 E  allocateEach[11]
 E  allocateEach[12]
 E  allocateEach[13]
 E  allocateEach[14]
 E  allocateEach[15]
 E  allocateEach[16]
 E  allocateEach[17]
 E  allocateEach[18]
 E  allocateAllCash
 G  findWorstP[1,2]
 G  findWorstP[1,3]
 G  findWorstP[2,1]
 G  findWorstP[2,3]
 G  findWorstP[3,1]
 G  findWorstP[3,2]
COLUMNS
    z         OBJ       1
    z         findWorstP[1,2]  1
    z         findWorstP[1,3]  1
    z         findWorstP[2,1]  1
    z         findWorstP[2,3]  1
    z         findWorstP[3,1]  1
    z         findWorstP[3,2]  1
    cashProportion[1]  allocateAllCash  1
    cashProportion[1]  findWorstP[1,2]  6.3076890729799634e-02
    cashProportion[1]  findWorstP[1,3]  6.3076890729799634e-02
    cashProportion[1]  findWorstP[2,1]  -6.7296260571120953e-02
    cashProportion[1]  findWorstP[3,1]  -6.5762072820535311e-02
    cashProportion[2]  allocateAllCash  1
    cashProportion[2]  findWorstP[1,2]  -6.3076890729799634e-02
    cashProportion[2]  findWorstP[2,1]  6.7296260571120953e-02
    cashProportion[2]  findWorstP[2,3]  6.7296260571120953e-02
    cashProportion[2]  findWorstP[3,2]  -6.5762072820535311e-02
    cashProportion[3]  allocateAllCash  1
    cashProportion[3]  findWorstP[1,3]  -6.3076890729799634e-02
    cashProportion[3]  findWorstP[2,3]  -6.7296260571120953e-02
    cashProportion[3]  findWorstP[3,1]  6.5762072820535311e-02
    cashProportion[3]  findWorstP[3,2]  6.5762072820535311e-02
    MARKER    'MARKER'                 'INTORG'
    x[1,1]    allocateEach[1]  1
    x[1,1]    findWorstP[1,2]  8.5374571602783791e-02
    x[1,1]    findWorstP[1,3]  8.5374571602783791e-02
    x[1,1]    findWorstP[2,1]  -3.2425581551851775e-02
    x[1,1]    findWorstP[3,1]  -3.9347640237620288e-02
    x[1,2]    allocateEach[2]  1
    x[1,2]    findWorstP[1,2]  5.9103046613822249e-02
    x[1,2]    findWorstP[1,3]  5.9103046613822249e-02
    x[1,2]    findWorstP[2,1]  -1.0816752282464839e-01
    x[1,2]    findWorstP[3,1]  -3.5149827922576114e-02
    x[1,3]    allocateEach[3]  1
    x[1,3]    findWorstP[1,2]  7.1455604381741339e-02
    x[1,3]    findWorstP[1,3]  7.1455604381741339e-02
    x[1,3]    findWorstP[2,1]  -8.9324569864734527e-02
    x[1,3]    findWorstP[3,1]  -7.9648830531138345e-02
    x[1,4]    allocateEach[4]  1
    x[1,4]    findWorstP[1,2]  5.4519459220790135e-02
    x[1,4]    findWorstP[1,3]  5.4519459220790135e-02
    x[1,4]    findWorstP[2,1]  -5.5519414971174777e-03
    x[1,4]    findWorstP[3,1]  -7.0266774808741966e-02
    x[1,5]    allocateEach[5]  1
    x[1,5]    findWorstP[1,2]  2.6050755871407243e-02
    x[1,5]    findWorstP[1,3]  2.6050755871407243e-02
    x[1,5]    findWorstP[2,1]  -4.3518248502658209e-02
    x[1,5]    findWorstP[3,1]  -1.0889103224533637e-01
    x[1,6]    allocateEach[6]  1
    x[1,6]    findWorstP[1,2]  1.0470763861146737e-01
    x[1,6]    findWorstP[1,3]  1.0470763861146737e-01
    x[1,6]    findWorstP[2,1]  -8.8494582651024029e-03
    x[1,6]    findWorstP[3,1]  -7.9089852912163791e-02
    x[1,7]    allocateEach[7]  1
    x[1,7]    findWorstP[1,2]  2.9131010702045795e-02
    x[1,7]    findWorstP[1,3]  2.9131010702045795e-02
    x[1,7]    findWorstP[2,1]  -4.0288027995244405e-02
    x[1,7]    findWorstP[3,1]  -7.1943707665665615e-02
    x[1,8]    allocateEach[8]  1
    x[1,8]    findWorstP[1,2]  9.9798153949664639e-02
    x[1,8]    findWorstP[1,3]  9.9798153949664639e-02
    x[1,8]    findWorstP[2,1]  -2.4686511586172862e-02
    x[1,8]    findWorstP[3,1]  -1.6944694096757928e-02
    x[1,9]    allocateEach[9]  1
    x[1,9]    findWorstP[1,2]  4.8253821408296711e-02
    x[1,9]    findWorstP[1,3]  4.8253821408296711e-02
    x[1,9]    findWorstP[2,1]  -8.4434374929899733e-02
    x[1,9]    findWorstP[3,1]  -1.0006795414191456e-02
    x[1,10]   allocateEach[10]  1
    x[1,10]   findWorstP[1,2]  3.5196905027228186e-02
    x[1,10]   findWorstP[1,3]  3.5196905027228186e-02
    x[1,10]   findWorstP[2,1]  -3.6822270575831671e-02
    x[1,10]   findWorstP[3,1]  -7.0036607553870089e-02
    x[1,11]   allocateEach[11]  1
    x[1,11]   findWorstP[1,2]  4.8369462374634679e-02
    x[1,11]   findWorstP[1,3]  4.8369462374634679e-02
    x[1,11]   findWorstP[2,1]  -9.0513470468157661e-03
    x[1,11]   findWorstP[3,1]  -1.0209561805388105e-01
    x[1,12]   allocateEach[12]  1
    x[1,12]   findWorstP[1,2]  1.1437942852336997e-02
    x[1,12]   findWorstP[1,3]  1.1437942852336997e-02
    x[1,12]   findWorstP[2,1]  -7.2814553937952858e-02
    x[1,12]   findWorstP[3,1]  -1.5717135404107938e-02
    x[1,13]   allocateEach[13]  1
    x[1,13]   findWorstP[1,2]  1.3593069952271818e-02
    x[1,13]   findWorstP[1,3]  1.3593069952271818e-02
    x[1,13]   findWorstP[2,1]  -6.6970995311693843e-02
    x[1,13]   findWorstP[3,1]  -8.5534536048576248e-02
    x[1,14]   allocateEach[14]  1
    x[1,14]   findWorstP[1,2]  5.4046382540316643e-02
    x[1,14]   findWorstP[1,3]  5.4046382540316643e-02
    x[1,14]   findWorstP[2,1]  -4.8453307611207074e-03
    x[1,14]   findWorstP[3,1]  -1.2790723163594116e-02
    x[1,15]   allocateEach[15]  1
    x[1,15]   findWorstP[1,2]  5.7410483379239291e-02
    x[1,15]   findWorstP[1,3]  5.7410483379239291e-02
    x[1,15]   findWorstP[2,1]  -6.6511137531124517e-02
    x[1,15]   findWorstP[3,1]  -5.8013108573182225e-02
    x[1,16]   allocateEach[16]  1
    x[1,16]   findWorstP[1,2]  7.9161497865898531e-03
    x[1,16]   findWorstP[1,3]  7.9161497865898531e-03
    x[1,16]   findWorstP[2,1]  -3.7865362614684046e-02
    x[1,16]   findWorstP[3,1]  -2.2041254740349413e-02
    x[1,17]   allocateEach[17]  1
    x[1,17]   findWorstP[1,2]  6.7429196190155791e-02
    x[1,17]   findWorstP[1,3]  6.7429196190155791e-02
    x[1,17]   findWorstP[2,1]  -1.0569999327037395e-01
    x[1,17]   findWorstP[3,1]  -8.7244349941910174e-03
    x[1,18]   allocateEach[18]  1
    x[1,18]   findWorstP[1,2]  0.0631294548054078
    x[1,18]   findWorstP[1,3]  0.0631294548054078
    x[1,18]   findWorstP[2,1]  -0.094876511361852
    x[1,18]   findWorstP[3,1]  -4.7995352813520679e-02
    x[2,1]    allocateEach[1]  1
    x[2,1]    findWorstP[1,2]  -8.5374571602783791e-02
    x[2,1]    findWorstP[2,1]  3.2425581551851775e-02
    x[2,1]    findWorstP[2,3]  3.2425581551851775e-02
    x[2,1]    findWorstP[3,2]  -3.9347640237620288e-02
    x[2,2]    allocateEach[2]  1
    x[2,2]    findWorstP[1,2]  -5.9103046613822249e-02
    x[2,2]    findWorstP[2,1]  1.0816752282464839e-01
    x[2,2]    findWorstP[2,3]  1.0816752282464839e-01
    x[2,2]    findWorstP[3,2]  -3.5149827922576114e-02
    x[2,3]    allocateEach[3]  1
    x[2,3]    findWorstP[1,2]  -7.1455604381741339e-02
    x[2,3]    findWorstP[2,1]  8.9324569864734527e-02
    x[2,3]    findWorstP[2,3]  8.9324569864734527e-02
    x[2,3]    findWorstP[3,2]  -7.9648830531138345e-02
    x[2,4]    allocateEach[4]  1
    x[2,4]    findWorstP[1,2]  -5.4519459220790135e-02
    x[2,4]    findWorstP[2,1]  5.5519414971174777e-03
    x[2,4]    findWorstP[2,3]  5.5519414971174777e-03
    x[2,4]    findWorstP[3,2]  -7.0266774808741966e-02
    x[2,5]    allocateEach[5]  1
    x[2,5]    findWorstP[1,2]  -2.6050755871407243e-02
    x[2,5]    findWorstP[2,1]  4.3518248502658209e-02
    x[2,5]    findWorstP[2,3]  4.3518248502658209e-02
    x[2,5]    findWorstP[3,2]  -1.0889103224533637e-01
    x[2,6]    allocateEach[6]  1
    x[2,6]    findWorstP[1,2]  -1.0470763861146737e-01
    x[2,6]    findWorstP[2,1]  8.8494582651024029e-03
    x[2,6]    findWorstP[2,3]  8.8494582651024029e-03
    x[2,6]    findWorstP[3,2]  -7.9089852912163791e-02
    x[2,7]    allocateEach[7]  1
    x[2,7]    findWorstP[1,2]  -2.9131010702045795e-02
    x[2,7]    findWorstP[2,1]  4.0288027995244405e-02
    x[2,7]    findWorstP[2,3]  4.0288027995244405e-02
    x[2,7]    findWorstP[3,2]  -7.1943707665665615e-02
    x[2,8]    allocateEach[8]  1
    x[2,8]    findWorstP[1,2]  -9.9798153949664639e-02
    x[2,8]    findWorstP[2,1]  2.4686511586172862e-02
    x[2,8]    findWorstP[2,3]  2.4686511586172862e-02
    x[2,8]    findWorstP[3,2]  -1.6944694096757928e-02
    x[2,9]    allocateEach[9]  1
    x[2,9]    findWorstP[1,2]  -4.8253821408296711e-02
    x[2,9]    findWorstP[2,1]  8.4434374929899733e-02
    x[2,9]    findWorstP[2,3]  8.4434374929899733e-02
    x[2,9]    findWorstP[3,2]  -1.0006795414191456e-02
    x[2,10]   allocateEach[10]  1
    x[2,10]   findWorstP[1,2]  -3.5196905027228186e-02
    x[2,10]   findWorstP[2,1]  3.6822270575831671e-02
    x[2,10]   findWorstP[2,3]  3.6822270575831671e-02
    x[2,10]   findWorstP[3,2]  -7.0036607553870089e-02
    x[2,11]   allocateEach[11]  1
    x[2,11]   findWorstP[1,2]  -4.8369462374634679e-02
    x[2,11]   findWorstP[2,1]  9.0513470468157661e-03
    x[2,11]   findWorstP[2,3]  9.0513470468157661e-03
    x[2,11]   findWorstP[3,2]  -1.0209561805388105e-01
    x[2,12]   allocateEach[12]  1
    x[2,12]   findWorstP[1,2]  -1.1437942852336997e-02
    x[2,12]   findWorstP[2,1]  7.2814553937952858e-02
    x[2,12]   findWorstP[2,3]  7.2814553937952858e-02
    x[2,12]   findWorstP[3,2]  -1.5717135404107938e-02
    x[2,13]   allocateEach[13]  1
    x[2,13]   findWorstP[1,2]  -1.3593069952271818e-02
    x[2,13]   findWorstP[2,1]  6.6970995311693843e-02
    x[2,13]   findWorstP[2,3]  6.6970995311693843e-02
    x[2,13]   findWorstP[3,2]  -8.5534536048576248e-02
    x[2,14]   allocateEach[14]  1
    x[2,14]   findWorstP[1,2]  -5.4046382540316643e-02
    x[2,14]   findWorstP[2,1]  4.8453307611207074e-03
    x[2,14]   findWorstP[2,3]  4.8453307611207074e-03
    x[2,14]   findWorstP[3,2]  -1.2790723163594116e-02
    x[2,15]   allocateEach[15]  1
    x[2,15]   findWorstP[1,2]  -5.7410483379239291e-02
    x[2,15]   findWorstP[2,1]  6.6511137531124517e-02
    x[2,15]   findWorstP[2,3]  6.6511137531124517e-02
    x[2,15]   findWorstP[3,2]  -5.8013108573182225e-02
    x[2,16]   allocateEach[16]  1
    x[2,16]   findWorstP[1,2]  -7.9161497865898531e-03
    x[2,16]   findWorstP[2,1]  3.7865362614684046e-02
    x[2,16]   findWorstP[2,3]  3.7865362614684046e-02
    x[2,16]   findWorstP[3,2]  -2.2041254740349413e-02
    x[2,17]   allocateEach[17]  1
    x[2,17]   findWorstP[1,2]  -6.7429196190155791e-02
    x[2,17]   findWorstP[2,1]  1.0569999327037395e-01
    x[2,17]   findWorstP[2,3]  1.0569999327037395e-01
    x[2,17]   findWorstP[3,2]  -8.7244349941910174e-03
    x[2,18]   allocateEach[18]  1
    x[2,18]   findWorstP[1,2]  -0.0631294548054078
    x[2,18]   findWorstP[2,1]  0.094876511361852
    x[2,18]   findWorstP[2,3]  0.094876511361852
    x[2,18]   findWorstP[3,2]  -4.7995352813520679e-02
    x[3,1]    allocateEach[1]  1
    x[3,1]    findWorstP[1,3]  -8.5374571602783791e-02
    x[3,1]    findWorstP[2,3]  -3.2425581551851775e-02
    x[3,1]    findWorstP[3,1]  3.9347640237620288e-02
    x[3,1]    findWorstP[3,2]  3.9347640237620288e-02
    x[3,2]    allocateEach[2]  1
    x[3,2]    findWorstP[1,3]  -5.9103046613822249e-02
    x[3,2]    findWorstP[2,3]  -1.0816752282464839e-01
    x[3,2]    findWorstP[3,1]  3.5149827922576114e-02
    x[3,2]    findWorstP[3,2]  3.5149827922576114e-02
    x[3,3]    allocateEach[3]  1
    x[3,3]    findWorstP[1,3]  -7.1455604381741339e-02
    x[3,3]    findWorstP[2,3]  -8.9324569864734527e-02
    x[3,3]    findWorstP[3,1]  7.9648830531138345e-02
    x[3,3]    findWorstP[3,2]  7.9648830531138345e-02
    x[3,4]    allocateEach[4]  1
    x[3,4]    findWorstP[1,3]  -5.4519459220790135e-02
    x[3,4]    findWorstP[2,3]  -5.5519414971174777e-03
    x[3,4]    findWorstP[3,1]  7.0266774808741966e-02
    x[3,4]    findWorstP[3,2]  7.0266774808741966e-02
    x[3,5]    allocateEach[5]  1
    x[3,5]    findWorstP[1,3]  -2.6050755871407243e-02
    x[3,5]    findWorstP[2,3]  -4.3518248502658209e-02
    x[3,5]    findWorstP[3,1]  1.0889103224533637e-01
    x[3,5]    findWorstP[3,2]  1.0889103224533637e-01
    x[3,6]    allocateEach[6]  1
    x[3,6]    findWorstP[1,3]  -1.0470763861146737e-01
    x[3,6]    findWorstP[2,3]  -8.8494582651024029e-03
    x[3,6]    findWorstP[3,1]  7.9089852912163791e-02
    x[3,6]    findWorstP[3,2]  7.9089852912163791e-02
    x[3,7]    allocateEach[7]  1
    x[3,7]    findWorstP[1,3]  -2.9131010702045795e-02
    x[3,7]    findWorstP[2,3]  -4.0288027995244405e-02
    x[3,7]    findWorstP[3,1]  7.1943707665665615e-02
    x[3,7]    findWorstP[3,2]  7.1943707665665615e-02
    x[3,8]    allocateEach[8]  1
    x[3,8]    findWorstP[1,3]  -9.9798153949664639e-02
    x[3,8]    findWorstP[2,3]  -2.4686511586172862e-02
    x[3,8]    findWorstP[3,1]  1.6944694096757928e-02
    x[3,8]    findWorstP[3,2]  1.6944694096757928e-02
    x[3,9]    allocateEach[9]  1
    x[3,9]    findWorstP[1,3]  -4.8253821408296711e-02
    x[3,9]    findWorstP[2,3]  -8.4434374929899733e-02
    x[3,9]    findWorstP[3,1]  1.0006795414191456e-02
    x[3,9]    findWorstP[3,2]  1.0006795414191456e-02
    x[3,10]   allocateEach[10]  1
    x[3,10]   findWorstP[1,3]  -3.5196905027228186e-02
    x[3,10]   findWorstP[2,3]  -3.6822270575831671e-02
    x[3,10]   findWorstP[3,1]  7.0036607553870089e-02
    x[3,10]   findWorstP[3,2]  7.0036607553870089e-02
    x[3,11]   allocateEach[11]  1
    x[3,11]   findWorstP[1,3]  -4.8369462374634679e-02
    x[3,11]   findWorstP[2,3]  -9.0513470468157661e-03
    x[3,11]   findWorstP[3,1]  1.0209561805388105e-01
    x[3,11]   findWorstP[3,2]  1.0209561805388105e-01
    x[3,12]   allocateEach[12]  1
    x[3,12]   findWorstP[1,3]  -1.1437942852336997e-02
    x[3,12]   findWorstP[2,3]  -7.2814553937952858e-02
    x[3,12]   findWorstP[3,1]  1.5717135404107938e-02
    x[3,12]   findWorstP[3,2]  1.5717135404107938e-02
    x[3,13]   allocateEach[13]  1
    x[3,13]   findWorstP[1,3]  -1.3593069952271818e-02
    x[3,13]   findWorstP[2,3]  -6.6970995311693843e-02
    x[3,13]   findWorstP[3,1]  8.5534536048576248e-02
    x[3,13]   findWorstP[3,2]  8.5534536048576248e-02
    x[3,14]   allocateEach[14]  1
    x[3,14]   findWorstP[1,3]  -5.4046382540316643e-02
    x[3,14]   findWorstP[2,3]  -4.8453307611207074e-03
    x[3,14]   findWorstP[3,1]  1.2790723163594116e-02
    x[3,14]   findWorstP[3,2]  1.2790723163594116e-02
    x[3,15]   allocateEach[15]  1
    x[3,15]   findWorstP[1,3]  -5.7410483379239291e-02
    x[3,15]   findWorstP[2,3]  -6.6511137531124517e-02
    x[3,15]   findWorstP[3,1]  5.8013108573182225e-02
    x[3,15]   findWorstP[3,2]  5.8013108573182225e-02
    x[3,16]   allocateEach[16]  1
    x[3,16]   findWorstP[1,3]  -7.9161497865898531e-03
    x[3,16]   findWorstP[2,3]  -3.7865362614684046e-02
    x[3,16]   findWorstP[3,1]  2.2041254740349413e-02
    x[3,16]   findWorstP[3,2]  2.2041254740349413e-02
    x[3,17]   allocateEach[17]  1
    x[3,17]   findWorstP[1,3]  -6.7429196190155791e-02
    x[3,17]   findWorstP[2,3]  -1.0569999327037395e-01
    x[3,17]   findWorstP[3,1]  8.7244349941910174e-03
    x[3,17]   findWorstP[3,2]  8.7244349941910174e-03
    x[3,18]   allocateEach[18]  1
    x[3,18]   findWorstP[1,3]  -0.0631294548054078
    x[3,18]   findWorstP[2,3]  -0.094876511361852
    x[3,18]   findWorstP[3,1]  4.7995352813520679e-02
    x[3,18]   findWorstP[3,2]  4.7995352813520679e-02
    MARKER    'MARKER'                 'INTEND'
RHS
    RHS1      allocateEach[1]  1
    RHS1      allocateEach[2]  1
    RHS1      allocateEach[3]  1
    RHS1      allocateEach[4]  1
    RHS1      allocateEach[5]  1
    RHS1      allocateEach[6]  1
    RHS1      allocateEach[7]  1
    RHS1      allocateEach[8]  1
    RHS1      allocateEach[9]  1
    RHS1      allocateEach[10]  1
    RHS1      allocateEach[11]  1
    RHS1      allocateEach[12]  1
    RHS1      allocateEach[13]  1
    RHS1      allocateEach[14]  1
    RHS1      allocateEach[15]  1
    RHS1      allocateEach[16]  1
    RHS1      allocateEach[17]  1
    RHS1      allocateEach[18]  1
    RHS1      allocateAllCash  1
BOUNDS
 UP BND1      z         1
 MI BND1      cashProportion[1]
 UP BND1      cashProportion[1]  1
 MI BND1      cashProportion[2]
 UP BND1      cashProportion[2]  1
 MI BND1      cashProportion[3]
 UP BND1      cashProportion[3]  1
 BV BND1      x[1,1]  
 BV BND1      x[1,2]  
 BV BND1      x[1,3]  
 BV BND1      x[1,4]  
 BV BND1      x[1,5]  
 BV BND1      x[1,6]  
 BV BND1      x[1,7]  
 BV BND1      x[1,8]  
 BV BND1      x[1,9]  
 BV BND1      x[1,10] 
 BV BND1      x[1,11] 
 BV BND1      x[1,12] 
 BV BND1      x[1,13] 
 BV BND1      x[1,14] 
 BV BND1      x[1,15] 
 BV BND1      x[1,16] 
 BV BND1      x[1,17] 
 BV BND1      x[1,18] 
 BV BND1      x[2,1]  
 BV BND1      x[2,2]  
 BV BND1      x[2,3]  
 BV BND1      x[2,4]  
 BV BND1      x[2,5]  
 BV BND1      x[2,6]  
 BV BND1      x[2,7]  
 BV BND1      x[2,8]  
 BV BND1      x[2,9]  
 BV BND1      x[2,10] 
 BV BND1      x[2,11] 
 BV BND1      x[2,12] 
 BV BND1      x[2,13] 
 BV BND1      x[2,14] 
 BV BND1      x[2,15] 
 BV BND1      x[2,16] 
 BV BND1      x[2,17] 
 BV BND1      x[2,18] 
 BV BND1      x[3,1]  
 BV BND1      x[3,2]  
 BV BND1      x[3,3]  
 BV BND1      x[3,4]  
 BV BND1      x[3,5]  
 BV BND1      x[3,6]  
 BV BND1      x[3,7]  
 BV BND1      x[3,8]  
 BV BND1      x[3,9]  
 BV BND1      x[3,10] 
 BV BND1      x[3,11] 
 BV BND1      x[3,12] 
 BV BND1      x[3,13] 
 BV BND1      x[3,14] 
 BV BND1      x[3,15] 
 BV BND1      x[3,16] 
 BV BND1      x[3,17] 
 BV BND1      x[3,18] 
ENDATA
